(declare-const T_537 Int) (assert (<= 0 T_537))
(declare-const T_536 Int) (assert (<= 0 T_536))
(declare-fun P_23 (Int ) Int)
(assert (forall ((X_535 Int)) (= (P_23 X_535) (+ (* T_536 1) (* T_537 (* X_535))))))
(assert (forall ((T_72 Int)
(T_230 Int)) (exists ((T_268 Int)) (=> (and (= T_72 T_230)) (and (and (= T_230 T_268))
(and (forall ((T_534 Int)) (exists ((T_286 Int)
(T_533 Int)) (=> (and (= T_268 0) (= T_534 0)) (and (and (= T_230 T_286)
(= T_286 0) (= T_533 0)) true)))) (forall ((T_96 Int) (T_269 Int) (T_531 Int)
(T_532 Int)) (exists ((T_112 Int) (T_129 Int) (T_330 Int) (T_331 Int)
(T_373 Int) (T_527 Int) (T_528 Int) (T_529 Int)
(T_530 Int)) (=> (and (= T_96 T_269) (= T_268 (+ T_269 1)) (= T_531 (+ T_269
 1)) (= T_532 1)) (and (and (= T_230 T_330) (= T_330 (+ T_331 1))
(= T_331 T_527) (= T_373 T_528) (= T_527 T_112) (= T_528 T_129)
(= T_529 (+ T_331 1)) (= T_530 1)) (and (= T_373 T_269)
(= T_373 T_331))))))))))))

(check-sat)
(get-model)
